p cnf 100 50
3 4 5 0
-8 11 12 0
14 41 16 0
17 18 19 0
47 20 9 0
2 12 -14 0
-10 6 -5 0
10 43 17 0
8 11 13 0
12 13 14 0
26 22 15 0
49 -36 -37 0
10 4 32 0
-28 25 23 0
29 -30 15 0
-38 45 27 0
-35 -40 12 0
19 24 50 0
-31 33 6 0
-39 34 36 0
-55 1 4 0
46 -59 17 0
7 -5 10 0
-54 52 9 0
24 12 -56 0
42 -58 19 0
-57 16 -14 0
21 48 15 0
-60 12 31 0
44 51 -53 0
71 4 10 0
62 64 15 0
69 16 24 0
61 72 -73 0
68 -75 17 0
65 -80 -98 0
67 31 -79 0
66 92 -76 0
70 87 13 0
63 77 86 0
16 82 12 0
81 91 67 0
36 85 -14 0
84 -94 -78 0
83 -95 21 0
90 45 28 0
88 -93 10 0
-96 -97 36 0
89 -100 -74 0
-99 27 -3 0
